130
0 94 86 106 19 112 103 121 79 45 
69 91 110 12 72 68 24 71 115 93 
113 41 31 66 99 3 100 85 119 21 
30 42 122 109 7 77 59 84 64 18 
89 1 27 32 54 28 5 6 58 51 
116 17 23 104 108 34 65 114 22 40 
55 87 125 123 35 10 16 50 92 56 
98 26 57 44 61 53 49 33 37 76 
11 118 70 29 14 102 38 39 36 82 
90 105 9 4 126 46 107 25 47 20 
63 81 117 97 2 13 73 62 95 74 
78 75 48 60 88 80 15 67 124 111 
127 96 8 101 120 129 43 83 52 128 
